0000000000000000
0000000000000000
0000000000000000
0001100000000000
0011110000000000
0000011100000000
0000001110000000
0000000111000000
0000011111100000
0000111001110000
0001110000111000
0001100000011100
0011100000001110
0011100000000111
0000000000000000
0000000000000000
